DATASET = "thpack6";
INSTANCE = "100";

WIDTH = 233;
HEIGHT = 220;
LENGTH = 587;

NO_OF_SHAPES = 15;
size = [|
  78,49,47 |
  46,45,43 |
  98,44,36 |
  100,89,31 |
  108,76,47 |
  75,36,28 |
  108,82,56 |
  45,41,24 |
  103,48,38 |
  74,62,46 |
  96,56,44 |
  117,64,42 |
  73,71,50 |
  61,48,47 |
  91,49,27 |
|];

verticality = [|
  1,1,1 |
  1,1,1 |
  0,1,1 |
  0,0,1 |
  0,1,1 |
  0,1,1 |
  1,1,1 |
  1,1,1 |
  0,1,1 |
  1,1,1 |
  0,1,1 |
  0,1,1 |
  1,1,1 |
  1,1,1 |
  0,1,1 |
|];

box_count = [
  7,
  7,
  9,
  8,
  7,
  5,
  14,
  16,
  9,
  13,
  9,
  10,
  6,
  6,
  13,
];
